(set-logic QF_S)
(declare-fun _var_0xINPUT_187687_() String)
(declare-fun __woorpje_diseq_pref0_() String)
(declare-fun __woorpje_diseq_suf_l0_() String)
(declare-fun __woorpje_diseq_suf_r0_() String)
(assert (=(str.++ _var_0xINPUT_187687_  "")(str.++ __woorpje_diseq_pref0_  "W" __woorpje_diseq_suf_l0_  "")) )
(assert (=(str.++  "6ld12WZXGF" "")(str.++ __woorpje_diseq_pref0_  "F" __woorpje_diseq_suf_r0_  "")) )
(check-sat)
